c Generated map
c Size: 10 * 10, weights in range: 1 to 10, walls: True, with ratio 0.05
c dim 1 of 6
c
p sp 100 163
c graph contains 100 nodes and 163 arcs
c
a 1 11 10
a 11 1 10
a 1 2 9
a 2 1 9
a 2 12 8
a 12 2 8
a 2 3 3
a 3 2 3
a 3 13 6
a 13 3 6
a 3 4 6
a 4 3 6
a 4 14 1
a 14 4 1
a 4 5 2
a 5 4 2
a 5 15 8
a 15 5 8
a 5 6 1
a 6 5 1
a 6 16 2
a 16 6 2
a 6 7 9
a 7 6 9
a 7 17 8
a 17 7 8
a 7 8 7
a 8 7 7
a 8 18 6
a 18 8 6
a 8 9 1
a 9 8 1
a 9 19 5
a 19 9 5
a 9 10 1
a 10 9 1
a 10 20 1
a 20 10 1
a 11 21 8
a 21 11 8
a 11 12 8
a 12 11 8
a 12 22 1
a 22 12 1
a 12 13 3
a 13 12 3
a 13 23 7
a 23 13 7
a 13 14 5
a 14 13 5
a 14 24 8
a 24 14 8
a 14 15 7
a 15 14 7
a 15 25 3
a 25 15 3
a 15 16 2
a 16 15 2
a 16 26 8
a 26 16 8
a 16 17 8
a 17 16 8
a 17 27 7
a 27 17 7
a 17 18 8
a 18 17 8
a 18 28 10
a 28 18 10
a 18 19 6
a 19 18 6
a 19 29 6
a 29 19 6
a 19 20 7
a 20 19 7
a 20 30 3
a 30 20 3
a 21 31 9
a 31 21 9
a 21 22 2
a 22 21 2
a 22 32 2
a 32 22 2
a 22 23 7
a 23 22 7
a 23 33 5
a 33 23 5
a 23 24 7
a 24 23 7
a 24 34 6
a 34 24 6
a 24 25 7
a 25 24 7
a 25 35 10
a 35 25 10
a 25 26 7
a 26 25 7
a 26 36 8
a 36 26 8
a 26 27 6
a 27 26 6
a 27 37 9
a 37 27 9
a 27 28 4
a 28 27 4
a 28 38 6
a 38 28 6
a 28 29 10
a 29 28 10
a 29 39 10
a 39 29 10
a 29 30 2
a 30 29 2
a 30 40 7
a 40 30 7
a 31 41 6
a 41 31 6
a 31 32 7
a 32 31 7
a 32 42 8
a 42 32 8
a 32 33 2
a 33 32 2
a 33 43 9
a 43 33 9
a 33 34 4
a 34 33 4
a 34 44 1
a 44 34 1
a 34 35 1
a 35 34 1
a 35 45 3
a 45 35 3
a 35 36 6
a 36 35 6
a 36 46 4
a 46 36 4
a 36 37 4
a 37 36 4
a 37 47 10
a 47 37 10
a 37 38 4
a 38 37 4
a 38 48 8
a 48 38 8
a 38 39 5
a 39 38 5
a 39 49 3
a 49 39 3
a 39 40 5
a 40 39 5
a 40 50 4
a 50 40 4
a 41 51 4
a 51 41 4
a 41 42 5
a 42 41 5
a 42 52 1
a 52 42 1
a 42 43 5
a 43 42 5
a 43 53 2
a 53 43 2
a 43 44 6
a 44 43 6
a 44 54 2
a 54 44 2
a 44 45 5
a 45 44 5
a 45 55 3
a 55 45 3
a 45 46 3
a 46 45 3
a 46 56 2
a 56 46 2
a 46 47 1
a 47 46 1
a 47 48 2
a 48 47 2
a 48 58 1
a 58 48 1
a 48 49 7
a 49 48 7
a 49 59 7
a 59 49 7
a 49 50 5
a 50 49 5
a 50 60 7
a 60 50 7
a 51 52 1
a 52 51 1
a 52 53 3
a 53 52 3
a 53 63 10
a 63 53 10
a 53 54 3
a 54 53 3
a 54 64 3
a 64 54 3
a 54 55 9
a 55 54 9
a 55 65 8
a 65 55 8
a 55 56 3
a 56 55 3
a 56 66 5
a 66 56 5
a 58 68 10
a 68 58 10
a 58 59 7
a 59 58 7
a 59 69 3
a 69 59 3
a 59 60 5
a 60 59 5
a 60 70 5
a 70 60 5
a 63 73 2
a 73 63 2
a 63 64 4
a 64 63 4
a 64 74 6
a 74 64 6
a 64 65 2
a 65 64 2
a 65 75 1
a 75 65 1
a 65 66 2
a 66 65 2
a 66 76 1
a 76 66 1
a 66 67 8
a 67 66 8
a 67 68 10
a 68 67 10
a 68 78 4
a 78 68 4
a 68 69 9
a 69 68 9
a 69 79 5
a 79 69 5
a 69 70 10
a 70 69 10
a 70 80 4
a 80 70 4
a 71 81 3
a 81 71 3
a 71 72 6
a 72 71 6
a 72 82 9
a 82 72 9
a 72 73 2
a 73 72 2
a 73 83 8
a 83 73 8
a 73 74 3
a 74 73 3
a 74 84 2
a 84 74 2
a 74 75 3
a 75 74 3
a 75 85 2
a 85 75 2
a 75 76 5
a 76 75 5
a 76 86 6
a 86 76 6
a 78 88 9
a 88 78 9
a 78 79 8
a 79 78 8
a 79 89 10
a 89 79 10
a 79 80 5
a 80 79 5
a 80 90 10
a 90 80 10
a 81 91 3
a 91 81 3
a 81 82 9
a 82 81 9
a 82 92 10
a 92 82 10
a 82 83 8
a 83 82 8
a 83 93 8
a 93 83 8
a 83 84 1
a 84 83 1
a 84 94 1
a 94 84 1
a 84 85 8
a 85 84 8
a 85 95 3
a 95 85 3
a 85 86 9
a 86 85 9
a 86 96 2
a 96 86 2
a 86 87 5
a 87 86 5
a 87 88 8
a 88 87 8
a 88 98 6
a 98 88 6
a 88 89 1
a 89 88 1
a 89 99 1
a 99 89 1
a 89 90 2
a 90 89 2
a 90 100 6
a 100 90 6
a 91 92 4
a 92 91 4
a 92 93 1
a 93 92 1
a 93 94 4
a 94 93 4
a 94 95 5
a 95 94 5
a 95 96 9
a 96 95 9
a 98 99 2
a 99 98 2
a 99 100 3
a 100 99 3
